NAME : 10_3_3_3_(16).dat
COMMENT : Henke, Speranza, Wäscher, 2015
TYPE : MCVRP
DIMENSION : 11
EDGE_WEIGHT_TYPE : DISTANCE_MATRIX
CAPACITY : 1000
VEHICLES : 2
PRODUCT TYPES : 3
COMPARTMENTS : 3
NODE_COORD_SECTION
1 50 50
2 74.68 25.32
3 34.62 32.16
4 67.53 34.59
5 17.1 66.5
6 47.37 45.06
7 29.31 96.76
8 13.47 90.75
9 26.78 62.62
10 25.91 52.08
11 82.34 51.96
DEMAND_SECTION
1 0 0 0
2 49 29 50
3 115 12 11
4 96 19 58
5 11 13 27
6 101 63 29
7 30 29 1
8 63 43 10
9 57 56 29
10 5 60 38
11 111 58 1
DEPOT_SECTION
1
EOF